17
15
2 10 16 4 3 14 8 13 0 9 15 6 12
10 1 5 11 12 6 9 7 8 15 2 4 16
3 4 6 1 10 15 8 5 16 9 2 11 13 0 14 12 7
13 2 14 0 12 5 11 4 7 3 8
1 4 0 14 16 6 11 12 8 7 9 10 5
11 2 1 16 4 13 12 6 3 8 5 0
6 0 5 4
4 9 15 2 3 12 11 14 13
15 11 0 3 9
5 10 15
5 2 1 12 6 4 9
12 0 9 10 14 2 4 11 3 5 1 7 16 15 8 13 6
5 12 14 9 0 7
11 12 14 5 10
16 9 15 3 13
